(set-logic QF_UF)
(declare-fun A0 () Bool)
(declare-fun A1 () Bool)
(declare-fun A2 () Bool)
(declare-fun A3 () Bool)
(declare-fun A4 () Bool)
(declare-fun A5 () Bool)
(declare-fun A6 () Bool)
(declare-fun A7 () Bool)
(declare-fun A8 () Bool)
(declare-fun A9 () Bool)
(declare-fun A10 () Bool)
(declare-fun A11 () Bool)
(declare-fun A12 () Bool)
(declare-fun A13 () Bool)
(declare-fun A14 () Bool)
(declare-fun A15 () Bool)
(declare-fun A16 () Bool)
(declare-fun A17 () Bool)
(declare-fun A18 () Bool)
(declare-fun A19 () Bool)
(declare-fun A20 () Bool)
(declare-fun A21 () Bool)
(declare-fun A22 () Bool)
(declare-fun A23 () Bool)
(declare-fun A24 () Bool)
(assert (let ((.def_0 (not A21))) (let ((.def_1 (or A9 .def_0))) (let ((.def_2 (not .def_1))) (let ((.def_3 (or A8 A6))) (let ((.def_4 (or .def_3 .def_2))) (let ((.def_5 (not .def_4))) (let ((.def_6 (not A12))) (let ((.def_7 (not A1))) (let ((.def_8 (or .def_7 .def_6))) (let ((.def_9 (not .def_8))) (let ((.def_10 (not A3))) (let ((.def_11 (and .def_10 A9))) (let ((.def_12 (not .def_11))) (let ((.def_13 (or .def_12 .def_9))) (let ((.def_14 (not .def_13))) (let ((.def_15 (= .def_14 .def_5))) (let ((.def_16 (not .def_15))) (let ((.def_17 (not A4))) (let ((.def_18 (or .def_17 A14))) (let ((.def_19 (not .def_18))) (let ((.def_20 (not A0))) (let ((.def_21 (or .def_0 .def_20))) (let ((.def_22 (not .def_21))) (let ((.def_23 (or .def_22 .def_19))) (let ((.def_24 (not .def_23))) (let ((.def_25 (not A6))) (let ((.def_26 (or .def_0 .def_25))) (let ((.def_27 (and .def_6 A8))) (let ((.def_28 (not .def_27))) (let ((.def_29 (or .def_28 .def_26))) (let ((.def_30 (not .def_29))) (let ((.def_31 (= .def_30 .def_24))) (let ((.def_32 (not .def_31))) (let ((.def_33 (or .def_32 .def_16))) (let ((.def_34 (not .def_33))) (let ((.def_35 (= .def_10 A1))) (let ((.def_36 (not .def_35))) (let ((.def_37 (not A7))) (let ((.def_38 (or .def_17 .def_37))) (let ((.def_39 (not .def_38))) (let ((.def_40 (and .def_39 .def_36))) (let ((.def_41 (or A12 A6))) (let ((.def_42 (not .def_41))) (let ((.def_43 (not A16))) (let ((.def_44 (and A2 .def_43))) (let ((.def_45 (not .def_44))) (let ((.def_46 (and .def_45 .def_42))) (let ((.def_47 (not .def_46))) (let ((.def_48 (and .def_47 .def_40))) (let ((.def_49 (= A8 A11))) (let ((.def_50 (not A19))) (let ((.def_51 (or A1 .def_50))) (let ((.def_52 (not .def_51))) (let ((.def_53 (and .def_52 .def_49))) (let ((.def_54 (not A18))) (let ((.def_55 (or .def_54 A17))) (let ((.def_56 (not A13))) (let ((.def_57 (and A1 .def_56))) (let ((.def_58 (and .def_57 .def_55))) (let ((.def_59 (= .def_58 .def_53))) (let ((.def_60 (not .def_59))) (let ((.def_61 (or .def_60 .def_48))) (let ((.def_62 (not .def_61))) (let ((.def_63 (and .def_62 .def_34))) (let ((.def_64 (and A18 A1))) (let ((.def_65 (not .def_64))) (let ((.def_66 (= A3 A3))) (let ((.def_67 (and .def_66 .def_65))) (let ((.def_68 (not .def_67))) (let ((.def_69 (or .def_25 .def_7))) (let ((.def_70 (not A14))) (let ((.def_71 (or .def_70 .def_56))) (let ((.def_72 (not .def_71))) (let ((.def_73 (and .def_72 .def_69))) (let ((.def_74 (not .def_73))) (let ((.def_75 (or .def_74 .def_68))) (let ((.def_76 (not .def_75))) (let ((.def_77 (or A8 .def_56))) (let ((.def_78 (not A23))) (let ((.def_79 (= .def_78 .def_20))) (let ((.def_80 (not .def_79))) (let ((.def_81 (= .def_80 .def_77))) (let ((.def_82 (not A20))) (let ((.def_83 (and A10 .def_82))) (let ((.def_84 (not A9))) (let ((.def_85 (= A14 .def_84))) (let ((.def_86 (not .def_85))) (let ((.def_87 (and .def_86 .def_83))) (let ((.def_88 (and .def_87 .def_81))) (let ((.def_89 (or .def_88 .def_76))) (let ((.def_90 (not .def_89))) (let ((.def_91 (or .def_43 .def_84))) (let ((.def_92 (or A15 A14))) (let ((.def_93 (not .def_92))) (let ((.def_94 (and .def_93 .def_91))) (let ((.def_95 (not A8))) (let ((.def_96 (not A5))) (let ((.def_97 (= .def_96 .def_95))) (let ((.def_98 (= A23 A18))) (let ((.def_99 (not .def_98))) (let ((.def_100 (and .def_99 .def_97))) (let ((.def_101 (and .def_100 .def_94))) (let ((.def_102 (not A24))) (let ((.def_103 (or .def_43 .def_102))) (let ((.def_104 (and .def_78 A8))) (let ((.def_105 (not .def_104))) (let ((.def_106 (and .def_105 .def_103))) (let ((.def_107 (not .def_106))) (let ((.def_108 (or A9 A17))) (let ((.def_109 (and .def_43 A2))) (let ((.def_110 (and .def_109 .def_108))) (let ((.def_111 (not .def_110))) (let ((.def_112 (or .def_111 .def_107))) (let ((.def_113 (not .def_112))) (let ((.def_114 (or .def_113 .def_101))) (let ((.def_115 (or .def_114 .def_90))) (let ((.def_116 (not .def_115))) (let ((.def_117 (and .def_116 .def_63))) (let ((.def_118 (not .def_117))) (let ((.def_119 (or .def_95 .def_10))) (let ((.def_120 (not .def_119))) (let ((.def_121 (or A18 .def_0))) (let ((.def_122 (not .def_121))) (let ((.def_123 (or .def_122 .def_120))) (let ((.def_124 (not .def_123))) (let ((.def_125 (and .def_82 A6))) (let ((.def_126 (not .def_125))) (let ((.def_127 (not A10))) (let ((.def_128 (and .def_127 A18))) (let ((.def_129 (= .def_128 .def_126))) (let ((.def_130 (and .def_129 .def_124))) (let ((.def_131 (not .def_130))) (let ((.def_132 (= A7 A15))) (let ((.def_133 (or A17 .def_17))) (let ((.def_134 (or .def_133 .def_132))) (let ((.def_135 (and .def_25 A2))) (let ((.def_136 (and .def_54 .def_95))) (let ((.def_137 (or .def_136 .def_135))) (let ((.def_138 (not .def_137))) (let ((.def_139 (or .def_138 .def_134))) (let ((.def_140 (not .def_139))) (let ((.def_141 (and .def_140 .def_131))) (let ((.def_142 (and A20 A22))) (let ((.def_143 (not A11))) (let ((.def_144 (and .def_143 A22))) (let ((.def_145 (or .def_144 .def_142))) (let ((.def_146 (or .def_10 A21))) (let ((.def_147 (not .def_146))) (let ((.def_148 (= A23 .def_17))) (let ((.def_149 (not .def_148))) (let ((.def_150 (or .def_149 .def_147))) (let ((.def_151 (not .def_150))) (let ((.def_152 (or .def_151 .def_145))) (let ((.def_153 (and A11 A7))) (let ((.def_154 (not .def_153))) (let ((.def_155 (or .def_70 A7))) (let ((.def_156 (not .def_155))) (let ((.def_157 (and .def_156 .def_154))) (let ((.def_158 (and A1 .def_7))) (let ((.def_159 (and A8 A19))) (let ((.def_160 (not .def_159))) (let ((.def_161 (or .def_160 .def_158))) (let ((.def_162 (not .def_161))) (let ((.def_163 (and .def_162 .def_157))) (let ((.def_164 (and .def_163 .def_152))) (let ((.def_165 (or .def_164 .def_141))) (let ((.def_166 (not .def_165))) (let ((.def_167 (and A24 A4))) (let ((.def_168 (or A0 .def_17))) (let ((.def_169 (and .def_168 .def_167))) (let ((.def_170 (= .def_7 .def_6))) (let ((.def_171 (not .def_170))) (let ((.def_172 (and A22 A23))) (let ((.def_173 (or .def_172 .def_171))) (let ((.def_174 (= .def_173 .def_169))) (let ((.def_175 (not .def_174))) (let ((.def_176 (or .def_56 .def_70))) (let ((.def_177 (or A6 .def_25))) (let ((.def_178 (and .def_177 .def_176))) (let ((.def_179 (or A13 A23))) (let ((.def_180 (and .def_96 .def_50))) (let ((.def_181 (or .def_180 .def_179))) (let ((.def_182 (or .def_181 .def_178))) (let ((.def_183 (or .def_182 .def_175))) (let ((.def_184 (not .def_183))) (let ((.def_185 (and .def_37 A23))) (let ((.def_186 (or .def_70 A13))) (let ((.def_187 (not .def_186))) (let ((.def_188 (and .def_187 .def_185))) (let ((.def_189 (not .def_188))) (let ((.def_190 (and .def_25 A0))) (let ((.def_191 (not .def_190))) (let ((.def_192 (not A17))) (let ((.def_193 (or .def_143 .def_192))) (let ((.def_194 (not .def_193))) (let ((.def_195 (and .def_194 .def_191))) (let ((.def_196 (or .def_195 .def_189))) (let ((.def_197 (or A2 A20))) (let ((.def_198 (not .def_197))) (let ((.def_199 (or A7 A1))) (let ((.def_200 (= .def_199 .def_198))) (let ((.def_201 (or .def_20 A8))) (let ((.def_202 (or A22 A24))) (let ((.def_203 (not .def_202))) (let ((.def_204 (= .def_203 .def_201))) (let ((.def_205 (not .def_204))) (let ((.def_206 (or .def_205 .def_200))) (let ((.def_207 (not .def_206))) (let ((.def_208 (and .def_207 .def_196))) (let ((.def_209 (or .def_208 .def_184))) (let ((.def_210 (not .def_209))) (let ((.def_211 (or .def_210 .def_166))) (let ((.def_212 (or .def_211 .def_118))) (let ((.def_213 (or A22 .def_10))) (let ((.def_214 (= .def_96 A12))) (let ((.def_215 (not .def_214))) (let ((.def_216 (= .def_215 .def_213))) (let ((.def_217 (not .def_216))) (let ((.def_218 (and A10 A12))) (let ((.def_219 (not .def_218))) (let ((.def_220 (and .def_95 .def_20))) (let ((.def_221 (and .def_220 .def_219))) (let ((.def_222 (and .def_221 .def_217))) (let ((.def_223 (not .def_222))) (let ((.def_224 (or A15 A10))) (let ((.def_225 (not .def_224))) (let ((.def_226 (and A17 .def_54))) (let ((.def_227 (not .def_226))) (let ((.def_228 (and .def_227 .def_225))) (let ((.def_229 (not .def_228))) (let ((.def_230 (or A4 A12))) (let ((.def_231 (or A21 A3))) (let ((.def_232 (or .def_231 .def_230))) (let ((.def_233 (or .def_232 .def_229))) (let ((.def_234 (= .def_233 .def_223))) (let ((.def_235 (not .def_234))) (let ((.def_236 (and A2 .def_0))) (let ((.def_237 (not .def_236))) (let ((.def_238 (or .def_0 .def_78))) (let ((.def_239 (and .def_238 .def_237))) (let ((.def_240 (not .def_239))) (let ((.def_241 (or A16 .def_127))) (let ((.def_242 (not .def_241))) (let ((.def_243 (and .def_70 A6))) (let ((.def_244 (or .def_243 .def_242))) (let ((.def_245 (not .def_244))) (let ((.def_246 (and .def_245 .def_240))) (let ((.def_247 (and A1 A4))) (let ((.def_248 (and A3 A9))) (let ((.def_249 (or .def_248 .def_247))) (let ((.def_250 (not .def_249))) (let ((.def_251 (= A5 A15))) (let ((.def_252 (not .def_251))) (let ((.def_253 (and A15 .def_6))) (let ((.def_254 (or .def_253 .def_252))) (let ((.def_255 (not .def_254))) (let ((.def_256 (and .def_255 .def_250))) (let ((.def_257 (and .def_256 .def_246))) (let ((.def_258 (not .def_257))) (let ((.def_259 (and .def_258 .def_235))) (let ((.def_260 (not .def_259))) (let ((.def_261 (or .def_43 .def_43))) (let ((.def_262 (not .def_261))) (let ((.def_263 (and A23 A23))) (let ((.def_264 (not .def_263))) (let ((.def_265 (and .def_264 .def_262))) (let ((.def_266 (or .def_70 .def_17))) (let ((.def_267 (not .def_266))) (let ((.def_268 (not A15))) (let ((.def_269 (and A10 .def_268))) (let ((.def_270 (or .def_269 .def_267))) (let ((.def_271 (not .def_270))) (let ((.def_272 (and .def_271 .def_265))) (let ((.def_273 (not .def_272))) (let ((.def_274 (or A18 .def_96))) (let ((.def_275 (not A2))) (let ((.def_276 (and .def_275 .def_78))) (let ((.def_277 (not .def_276))) (let ((.def_278 (and .def_277 .def_274))) (let ((.def_279 (not .def_278))) (let ((.def_280 (= A4 .def_43))) (let ((.def_281 (and A18 .def_6))) (let ((.def_282 (not .def_281))) (let ((.def_283 (and .def_282 .def_280))) (let ((.def_284 (and .def_283 .def_279))) (let ((.def_285 (not .def_284))) (let ((.def_286 (or .def_285 .def_273))) (let ((.def_287 (not .def_286))) (let ((.def_288 (or A24 .def_268))) (let ((.def_289 (and .def_143 .def_143))) (let ((.def_290 (or .def_289 .def_288))) (let ((.def_291 (not .def_290))) (let ((.def_292 (or .def_78 .def_275))) (let ((.def_293 (not .def_292))) (let ((.def_294 (or .def_199 .def_293))) (let ((.def_295 (and .def_294 .def_291))) (let ((.def_296 (or .def_25 A7))) (let ((.def_297 (not .def_296))) (let ((.def_298 (or .def_84 A1))) (let ((.def_299 (and .def_298 .def_297))) (let ((.def_300 (and A7 .def_143))) (let ((.def_301 (not .def_300))) (let ((.def_302 (= A19 .def_25))) (let ((.def_303 (not .def_302))) (let ((.def_304 (or .def_303 .def_301))) (let ((.def_305 (not .def_304))) (let ((.def_306 (and .def_305 .def_299))) (let ((.def_307 (not .def_306))) (let ((.def_308 (= .def_307 .def_295))) (let ((.def_309 (not .def_308))) (let ((.def_310 (and .def_309 .def_287))) (let ((.def_311 (not .def_310))) (let ((.def_312 (and .def_311 .def_260))) (let ((.def_313 (not .def_312))) (let ((.def_314 (or A7 .def_95))) (let ((.def_315 (and .def_268 A16))) (let ((.def_316 (or .def_315 .def_314))) (let ((.def_317 (not .def_316))) (let ((.def_318 (or .def_95 A11))) (let ((.def_319 (not .def_318))) (let ((.def_320 (or A7 A14))) (let ((.def_321 (not .def_320))) (let ((.def_322 (and .def_321 .def_319))) (let ((.def_323 (and .def_322 .def_317))) (let ((.def_324 (or A20 A0))) (let ((.def_325 (or .def_43 .def_17))) (let ((.def_326 (not .def_325))) (let ((.def_327 (or .def_326 .def_324))) (let ((.def_328 (or .def_275 A6))) (let ((.def_329 (not .def_328))) (let ((.def_330 (and A21 A13))) (let ((.def_331 (and .def_330 .def_329))) (let ((.def_332 (not .def_331))) (let ((.def_333 (or .def_332 .def_327))) (let ((.def_334 (= .def_333 .def_323))) (let ((.def_335 (not .def_334))) (let ((.def_336 (or .def_50 A3))) (let ((.def_337 (= A20 A24))) (let ((.def_338 (not .def_337))) (let ((.def_339 (or .def_338 .def_336))) (let ((.def_340 (and A1 A19))) (let ((.def_341 (and A22 .def_95))) (let ((.def_342 (not .def_341))) (let ((.def_343 (or .def_342 .def_340))) (let ((.def_344 (not .def_343))) (let ((.def_345 (or .def_344 .def_339))) (let ((.def_346 (or .def_10 A11))) (let ((.def_347 (and A17 A14))) (let ((.def_348 (not .def_347))) (let ((.def_349 (or .def_348 .def_346))) (let ((.def_350 (or .def_43 A7))) (let ((.def_351 (not .def_350))) (let ((.def_352 (and .def_7 .def_37))) (let ((.def_353 (not .def_352))) (let ((.def_354 (and .def_353 .def_351))) (let ((.def_355 (not .def_354))) (let ((.def_356 (or .def_355 .def_349))) (let ((.def_357 (not .def_356))) (let ((.def_358 (and .def_357 .def_345))) (let ((.def_359 (or .def_358 .def_335))) (let ((.def_360 (not .def_359))) (let ((.def_361 (and A22 A0))) (let ((.def_362 (= A18 .def_95))) (let ((.def_363 (and .def_362 .def_361))) (let ((.def_364 (not .def_363))) (let ((.def_365 (and A5 .def_95))) (let ((.def_366 (not .def_365))) (let ((.def_367 (or A2 A17))) (let ((.def_368 (not .def_367))) (let ((.def_369 (or .def_368 .def_366))) (let ((.def_370 (not .def_369))) (let ((.def_371 (and .def_370 .def_364))) (let ((.def_372 (not .def_371))) (let ((.def_373 (or .def_37 A20))) (let ((.def_374 (not .def_373))) (let ((.def_375 (and .def_127 .def_43))) (let ((.def_376 (and .def_375 .def_374))) (let ((.def_377 (not .def_376))) (let ((.def_378 (or A16 A6))) (let ((.def_379 (= A8 .def_25))) (let ((.def_380 (or .def_379 .def_378))) (let ((.def_381 (not .def_380))) (let ((.def_382 (or .def_381 .def_377))) (let ((.def_383 (not .def_382))) (let ((.def_384 (or .def_383 .def_372))) (let ((.def_385 (not .def_384))) (let ((.def_386 (or .def_96 .def_95))) (let ((.def_387 (and A1 A22))) (let ((.def_388 (or .def_387 .def_386))) (let ((.def_389 (not .def_388))) (let ((.def_390 (and A17 .def_7))) (let ((.def_391 (not .def_390))) (let ((.def_392 (and A22 .def_78))) (let ((.def_393 (or .def_392 .def_391))) (let ((.def_394 (not .def_393))) (let ((.def_395 (and .def_394 .def_389))) (let ((.def_396 (not .def_395))) (let ((.def_397 (and A23 A0))) (let ((.def_398 (not .def_397))) (let ((.def_399 (and A2 A20))) (let ((.def_400 (not .def_399))) (let ((.def_401 (or .def_400 .def_398))) (let ((.def_402 (and .def_78 A22))) (let ((.def_403 (and .def_56 A23))) (let ((.def_404 (not .def_403))) (let ((.def_405 (and .def_404 .def_402))) (let ((.def_406 (= .def_405 .def_401))) (let ((.def_407 (and .def_406 .def_396))) (let ((.def_408 (and .def_407 .def_385))) (let ((.def_409 (not .def_408))) (let ((.def_410 (and .def_409 .def_360))) (let ((.def_411 (and .def_410 .def_313))) (let ((.def_412 (not .def_411))) (let ((.def_413 (and .def_412 .def_212))) .def_413)))))))))))))))))))))))))))))))))))))))))))))))))))))))))))))))))))))))))))))))))))))))))))))))))))))))))))))))))))))))))))))))))))))))))))))))))))))))))))))))))))))))))))))))))))))))))))))))))))))))))))))))))))))))))))))))))))))))))))))))))))))))))))))))))))))))))))))))))))))))))))))))))))))))))))))))))))))))))))))))))))))))))))))))))))))))))))))))))))))))))))))))))))))))))))))))))))))))))))))))))))))))))))))))
(check-sat)
